
Gurobi 9.0.2 (mac64, Python) logging started Wed Aug 12 22:28:46 2020

Using license file /Users/prlinger/gurobi.lic
Set parameter LogFile to value gurobi.log
Academic license - for non-commercial use only
